WARNING: for repeatability, setting FPU to use double precision
============================[ Problem Statistics ]=============================
|                                                                             |
|  Number of variables:        112049                                         |
|  Number of clauses:          231580                                         |
|  Parse time:                   0.06 s                                       |
|                                                                             |
c ============================[ Search Statistics ]==============================
c | Conflicts |          ORIGINAL         |          LEARNT          | Progress |
c |           |    Vars  Clauses Literals |    Limit  Clauses Lit/Cl |          |
c ===============================================================================
We had 261 decisions of which only 0 were on extended
We had 67674 decisions of which only 0 were on extended
c Switched to VSIDS.
c Switched to LRB.
We had 98802 decisions of which only 0 were on extended
We had 130362 decisions of which only 0.00153419 were on extended
c Switched to VSIDS.
We had 179707 decisions of which only 0.00111292 were on extended
c Switched to LRB.
We had 241778 decisions of which only 0.000827205 were on extended
We had 273394 decisions of which only 0.000731545 were on extended
c Switched to VSIDS.
We had 298818 decisions of which only 0.000669304 were on extended
We had 316334 decisions of which only 0.00126449 were on extended
We had 331961 decisions of which only 0.00120496 were on extended
We had 346117 decisions of which only 0.00173352 were on extended
c Switched to LRB.
We had 364185 decisions of which only 0.00356961 were on extended
c Switched to VSIDS.
We had 383880 decisions of which only 0.00390747 were on extended
We had 402156 decisions of which only 0.00621649 were on extended
We had 416859 decisions of which only 0.00599723 were on extended
c Switched to LRB.
We had 435597 decisions of which only 0.00849409 were on extended
We had 452679 decisions of which only 0.0125917 were on extended
c Switched to VSIDS.
We had 468631 decisions of which only 0.0125899 were on extended
We had 481990 decisions of which only 0.0122409 were on extended
Window full
Continue
We had 495278 decisions of which only 0.012922 were on extended
We had 508778 decisions of which only 0.0125792 were on extended
c Switched to LRB.
We had 524670 decisions of which only 0.0146759 were on extended
We had 539393 decisions of which only 0.0142753 were on extended
c Switched to VSIDS.
We had 553107 decisions of which only 0.0139214 were on extended
We had 567081 decisions of which only 0.0137546 were on extended
We had 580729 decisions of which only 0.0134314 were on extended
We had 595667 decisions of which only 0.0135982 were on extended
c Switched to LRB.
We had 610080 decisions of which only 0.0162274 were on extended
We had 625960 decisions of which only 0.0158157 were on extended
Window full
Continue
We had 639935 decisions of which only 0.0165642 were on extended
c Switched to VSIDS.
We had 653245 decisions of which only 0.0163798 were on extended
We had 667008 decisions of which only 0.0169413 were on extended
We had 679642 decisions of which only 0.0176564 were on extended
We had 691115 decisions of which only 0.0180867 were on extended
c Switched to LRB.
We had 706998 decisions of which only 0.0219237 were on extended
c ===============================================================================
restarts                  : 670
conflicts                 : 340248         (1217 /sec)
decisions                 : 750666         (0.00 % random) (2685 /sec)
propagations              : 919201459      (3288099 /sec)
conflict literals         : 18272426       (40.77 % deleted)

conflicts w/ DIP found    : 239207         (70.30 % of conflicts)
conflicts w/ dangerous DIP: 0              (0.00 % of conflicts)
conflicts w/ DIP-learning : 172            (0.05 % of conflicts)
decisions on ext vars     : 162            (0.02 % of decisions)
total ext vars            : 57          
tried delete ext vars     : 7           
deleted ext vars          : 7           
max ext vars              : 50          

Memory used               : 93.00 MB
CPU time                  : 279.554 s
DIP computation time      : 5.17622 s (1.85 % of total time)
ER_sel time               : 0.382855 s
ER_add time               : 0.000435 s
ER_delC time              : 0 s
ER_delV time              : 0.002895 s
ER_sub time               : 0.578838 s
ER_stat time              : 0 s

SATISFIABLE
